tsp_instances/TSP20/instance108.tsp
NODE_COORD_SECTION
0 109 94
1 8 19
2 108 121
3 95 195
4 150 46
5 92 173
6 83 96
7 150 70
8 155 56
9 68 128
10 50 151
11 16 76
12 37 116
13 175 94
14 196 73
15 155 127
16 116 143
17 69 11
18 106 15
19 61 42
