tsp_instances/TSP20/instance108.opt.tour
TOUR_SECTION
1
3
17
16
14
15
8
9
5
19
18
20
2
12
13
11
4
6
10
7
-1